22
2 51 35 
2 28 7 
3 15 20 48 
3 58 36 5 
2 44 47 
3 5 17 8 
2 2 53 
3 46 26 21 
3 27 59 4 
3 52 33 30 
3 10 42 9 
3 3 40 23 
2 13 19 
3 60 14 34 
2 45 16 
3 55 24 6 
3 57 29 31 
3 48 18 32 
3 38 1 25 
3 58 20 36 
3 50 49 39 
3 41 11 43 
